N = 5;

puzzle=array2d(1..N*N, 1..4,[
  6,5,4,5,
  6,1,7,4,
  6,5,8,6,
  6,7,1,7,
  9,6,7,0,
  8,8,7,2,
  1,0,9,6,
  0,6,2,7,
  6,0,4,2,
  0,9,9,7,
  7,6,4,9,
  6,4,6,7,
  7,6,0,7,
  5,7,8,7,
  3,6,3,7,
  9,8,7,8,
  2,0,6,0,
  7,5,7,4,
  0,7,6,8,
  0,6,7,9,
  8,0,4,7,
  7,3,5,4,
  4,2,7,4,
  6,0,8,8,
  5,6,2,6]);